0 3192
1 3140
4 3090
5 3067
7 3051
15 3024
21 2995
27 2973
53 2935
55 2929
66 2927
102 2915
106 2882
114 2878
138 2857
139 2856
143 2799
191 2791
266 2783
267 2781
272 2777
278 2771
871 2770
902 2749
1160 2745
1360 2744
4050 2743
4055 2742
6952 2735
47828 2729
407545 2724
